c weights 0.6 0.4 0.6 0.4 0.6 0.4 0.6 0.4 1 1
p cnf 5 6
c  1  heads(c1)
c  2  heads(c2)
c  3  heads(c3)
c  4  heads(c4)
c  5  someHeads
c QUERIES: 5
5 -1 0
5 -2 0
5 -3 0
5 -4 0
-5 1 2 3 4 0
5 0
c EVIDENCE:
